# Objective value = 3.7885300000000220e+03
I_0_0 2042
I_0_1 2.4260000000000041e+03
I_0_2 2.4320000000000095e+03
I_0_3 3.2580000000000005e+03
I_1_0 32
I_1_1 8.9636353894917420e-12
I_1_2 32
I_1_3 0
I_2_0 72
I_2_1 7.1999999999999986e+01
I_2_2 3.5999999999999986e+01
I_2_3 0
I_3_0 182
I_3_1 182
I_3_2 9.0999999999999815e+01
I_3_3 0
I_4_0 52
I_4_1 52
I_4_2 52
I_4_3 0
I_5_0 152
I_5_1 1.5199999999999602e+02
I_5_2 7.5999999999995850e+01
I_5_3 -4.1499026437463726e-12
I_6_0 20
I_6_1 1.9999999999999083e+01
I_6_2 1.0000000000000913e+01
I_6_3 9.1324343920451412e-13
I_7_0 85
I_7_1 -2.6275856490620697e-13
I_7_2 85
I_7_3 3.0899727221367357e-12
I_8_0 79
I_8_1 7.3909600228211358e-12
I_8_2 79
I_8_3 0
I_9_0 22
I_9_1 0
I_9_2 22
I_9_3 0
I_10_0 72
I_10_1 72
I_10_2 3.5999999999999993e+01
I_10_3 -7.0499162063697440e-15
I_11_0 136
I_11_1 135.999999999981
I_11_2 6.7999999999980986e+01
I_11_3 0
I_12_0 46
I_12_1 4.3010135383769743e-12
I_12_2 46
I_12_3 0
I_13_0 55
I_13_1 0
I_13_2 55
I_13_3 0
I_14_0 65
I_14_1 0
I_14_2 6.5000000000013273e+01
I_14_3 0
I_15_0 146
I_15_1 146
I_15_2 73
I_15_3 0
q_1_0_0 8.9636353894917420e-12
q_1_0_1 6.3999999999991033e+01
q_1_0_2 0
q_1_1_0 0
q_1_1_1 0
q_1_1_2 0
q_1_2_0 0
q_1_2_1 0
q_1_2_2 0
q_1_3_0 0
q_1_3_1 0
q_1_3_2 0
q_1_4_0 0
q_1_4_1 0
q_1_4_2 0
q_2_0_0 3.3660105952515451e-12
q_2_0_1 0
q_2_0_2 0
q_2_1_0 3.5999999999996618e+01
q_2_1_1 0
q_2_1_2 0
q_2_2_0 0
q_2_2_1 0
q_2_2_2 0
q_2_3_0 0
q_2_3_1 0
q_2_3_2 0
q_2_4_0 0
q_2_4_1 0
q_2_4_2 0
q_3_0_0 0
q_3_0_1 -1.8829382497642655e-13
q_3_0_2 0
q_3_1_0 91
q_3_1_1 0
q_3_1_2 1.8807178037150152e-13
q_3_2_0 0
q_3_2_1 0
q_3_2_2 0
q_3_3_0 0
q_3_3_1 0
q_3_3_2 0
q_3_4_0 0
q_3_4_1 0
q_3_4_2 0
q_4_0_0 52
q_4_0_1 52
q_4_0_2 0
q_4_1_0 0
q_4_1_1 0
q_4_1_2 0
q_4_2_0 0
q_4_2_1 0
q_4_2_2 0
q_4_3_0 0
q_4_3_1 0
q_4_3_2 0
q_4_4_0 0
q_4_4_1 0
q_4_4_2 0
q_5_0_0 0
q_5_0_1 0
q_5_0_2 0
q_5_1_0 7.5999999999996035e+01
q_5_1_1 0
q_5_1_2 8.3488771451811772e-14
q_5_2_0 0
q_5_2_1 -1.7053025658242404e-13
q_5_2_2 0
q_5_3_0 0
q_5_3_1 0
q_5_3_2 0
q_5_4_0 0
q_5_4_1 0
q_5_4_2 -8.3488771451811772e-14
q_6_0_0 9.9999999999990834e+00
q_6_0_1 0
q_6_0_2 0
q_6_1_0 0
q_6_1_1 1.8309277705075289e-12
q_6_1_2 0
q_6_2_0 0
q_6_2_1 0
q_6_2_2 0
q_6_3_0 0
q_6_3_1 0
q_6_3_2 0
q_6_4_0 0
q_6_4_1 0
q_6_4_2 0
q_7_0_0 2.3669688171273906e-11
q_7_0_1 0
q_7_0_2 0
q_7_1_0 -2.3932557324801706e-11
q_7_1_1 0
q_7_1_2 0
q_7_2_0 0
q_7_2_1 1.7000000000000023e+02
q_7_2_2 9.0158991383759712e-12
q_7_3_0 0
q_7_3_1 0
q_7_3_2 0
q_7_4_0 0
q_7_4_1 0
q_7_4_2 -5.9255933493318480e-12
q_8_0_0 0
q_8_0_1 0
q_8_0_2 0
q_8_1_0 7.3909600228211358e-12
q_8_1_1 0
q_8_1_2 0
q_8_2_0 0
q_8_2_1 0
q_8_2_2 0
q_8_3_0 0
q_8_3_1 1.5799999999999261e+02
q_8_3_2 0
q_8_4_0 0
q_8_4_1 0
q_8_4_2 0
q_9_0_0 0
q_9_0_1 0
q_9_0_2 0
q_9_1_0 0
q_9_1_1 0
q_9_1_2 0
q_9_2_0 0
q_9_2_1 0
q_9_2_2 0
q_9_3_0 0
q_9_3_1 44
q_9_3_2 0
q_9_4_0 0
q_9_4_1 0
q_9_4_2 0
q_10_0_0 36
q_10_0_1 -3.9968028886505635e-15
q_10_0_2 0
q_10_1_0 0
q_10_1_1 0
q_10_1_2 0
q_10_2_0 0
q_10_2_1 0
q_10_2_2 0
q_10_3_0 0
q_10_3_1 0
q_10_3_2 0
q_10_4_0 0
q_10_4_1 0
q_10_4_2 0
q_11_0_0 6.7999999999980986e+01
q_11_0_1 0
q_11_0_2 0
q_11_1_0 0
q_11_1_1 0
q_11_1_2 0
q_11_2_0 0
q_11_2_1 0
q_11_2_2 0
q_11_3_0 0
q_11_3_1 0
q_11_3_2 1.3266276965850921e-11
q_11_4_0 0
q_11_4_1 0
q_11_4_2 5.7372162576285746e-12
q_12_0_0 4.3010135383769743e-12
q_12_0_1 -4.3112180492244079e-12
q_12_0_2 0
q_12_1_0 0
q_12_1_1 92
q_12_1_2 2.2204460492503131e-16
q_12_2_0 0
q_12_2_1 0
q_12_2_2 0
q_12_3_0 0
q_12_3_1 0
q_12_3_2 0
q_12_4_0 0
q_12_4_1 0
q_12_4_2 0
q_13_0_0 0
q_13_0_1 0
q_13_0_2 0
q_13_1_0 0
q_13_1_1 110
q_13_1_2 0
q_13_2_0 0
q_13_2_1 0
q_13_2_2 0
q_13_3_0 0
q_13_3_1 0
q_13_3_2 0
q_13_4_0 0
q_13_4_1 0
q_13_4_2 0
q_14_0_0 0
q_14_0_1 130
q_14_0_2 0
q_14_1_0 0
q_14_1_1 0
q_14_1_2 0
q_14_2_0 0
q_14_2_1 0
q_14_2_2 0
q_14_3_0 0
q_14_3_1 1.3276491017677472e-11
q_14_3_2 -1.3266063517600010e-11
q_14_4_0 0
q_14_4_1 0
q_14_4_2 0
q_15_0_0 73
q_15_0_1 0
q_15_0_2 0
q_15_1_0 0
q_15_1_1 0
q_15_1_2 0
q_15_2_0 0
q_15_2_1 0
q_15_2_2 0
q_15_3_0 0
q_15_3_1 0
q_15_3_2 0
q_15_4_0 0
q_15_4_1 0
q_15_4_2 0
y_0_0_0 1
y_0_0_1 1
y_0_0_2 0
y_0_1_0 1
y_0_1_1 1
y_0_1_2 1.0972125985553305e-15
y_0_2_0 0
y_0_2_1 1
y_0_2_2 3.6353732524307958e-14
y_0_3_0 0
y_0_3_1 1
y_0_3_2 0
y_0_4_0 0
y_0_4_1 0
y_0_4_2 -1.0972125985553305e-15
y_1_0_0 2.8011360592161694e-13
y_1_0_1 1
y_1_0_2 0
y_1_1_0 0
y_1_1_1 0
y_1_1_2 0
y_1_2_0 0
y_1_2_1 0
y_1_2_2 0
y_1_3_0 0
y_1_3_1 0
y_1_3_2 0
y_1_4_0 0
y_1_4_1 0
y_1_4_2 0
y_2_0_0 9.3500294312542920e-14
y_2_0_1 0
y_2_0_2 0
y_2_1_0 9.9999999999990608e-01
y_2_1_1 0
y_2_1_2 0
y_2_2_0 0
y_2_2_1 0
y_2_2_2 0
y_2_3_0 0
y_2_3_1 0
y_2_3_2 0
y_2_4_0 0
y_2_4_1 0
y_2_4_2 0
y_3_0_0 0
y_3_0_1 0
y_3_0_2 0
y_3_1_0 1
y_3_1_1 0
y_3_1_2 0
y_3_2_0 0
y_3_2_1 0
y_3_2_2 0
y_3_3_0 0
y_3_3_1 0
y_3_3_2 0
y_3_4_0 0
y_3_4_1 0
y_3_4_2 0
y_4_0_0 1
y_4_0_1 1
y_4_0_2 0
y_4_1_0 0
y_4_1_1 0
y_4_1_2 0
y_4_2_0 0
y_4_2_1 0
y_4_2_2 0
y_4_3_0 0
y_4_3_1 0
y_4_3_2 0
y_4_4_0 0
y_4_4_1 0
y_4_4_2 0
y_5_0_0 0
y_5_0_1 0
y_5_0_2 0
y_5_1_0 9.9999999999994782e-01
y_5_1_1 0
y_5_1_2 1.0972125985553305e-15
y_5_2_0 0
y_5_2_1 -1.1241008124329710e-15
y_5_2_2 0
y_5_3_0 0
y_5_3_1 0
y_5_3_2 0
y_5_4_0 0
y_5_4_1 0
y_5_4_2 -1.0972125985553305e-15
y_6_0_0 9.9999999999990841e-01
y_6_0_1 0
y_6_0_2 0
y_6_1_0 0
y_6_1_1 9.2443197194369553e-14
y_6_1_2 0
y_6_2_0 0
y_6_2_1 0
y_6_2_2 0
y_6_3_0 0
y_6_3_1 0
y_6_3_2 0
y_6_4_0 0
y_6_4_1 0
y_6_4_2 0
y_7_0_0 2.7846691966204595e-13
y_7_0_1 -1.7312540290248535e-15
y_7_0_2 0
y_7_1_0 -2.8155949793884361e-13
y_7_1_1 0
y_7_1_2 0
y_7_2_0 0
y_7_2_1 1.0000000000000013e+00
y_7_2_2 3.6353732524307958e-14
y_7_3_0 0
y_7_3_1 0
y_7_3_2 0
y_7_4_0 0
y_7_4_1 0
y_7_4_2 0
y_8_0_0 0
y_8_0_1 0
y_8_0_2 0
y_8_1_0 9.3556455985077669e-14
y_8_1_1 0
y_8_1_2 0
y_8_2_0 0
y_8_2_1 0
y_8_2_2 0
y_8_3_0 0
y_8_3_1 1
y_8_3_2 0
y_8_4_0 0
y_8_4_1 0
y_8_4_2 0
y_9_0_0 0
y_9_0_1 0
y_9_0_2 0
y_9_1_0 0
y_9_1_1 0
y_9_1_2 0
y_9_2_0 0
y_9_2_1 0
y_9_2_2 0
y_9_3_0 0
y_9_3_1 1
y_9_3_2 0
y_9_4_0 0
y_9_4_1 0
y_9_4_2 0
y_10_0_0 1
y_10_0_1 -1.1275702593849246e-16
y_10_0_2 0
y_10_1_0 0
y_10_1_1 0
y_10_1_2 0
y_10_2_0 0
y_10_2_1 0
y_10_2_2 0
y_10_3_0 0
y_10_3_1 0
y_10_3_2 0
y_10_4_0 0
y_10_4_1 0
y_10_4_2 0
y_11_0_0 9.9999999999972045e-01
y_11_0_1 0
y_11_0_2 0
y_11_1_0 0
y_11_1_1 0
y_11_1_2 0
y_11_2_0 0
y_11_2_1 0
y_11_2_2 0
y_11_3_0 0
y_11_3_1 0
y_11_3_2 0
y_11_4_0 0
y_11_4_1 0
y_11_4_2 0
y_12_0_0 9.3500294312542920e-14
y_12_0_1 -1.1275702593849246e-16
y_12_0_2 0
y_12_1_0 0
y_12_1_1 1
y_12_1_2 0
y_12_2_0 0
y_12_2_1 0
y_12_2_2 0
y_12_3_0 0
y_12_3_1 0
y_12_3_2 0
y_12_4_0 0
y_12_4_1 0
y_12_4_2 0
y_13_0_0 0
y_13_0_1 0
y_13_0_2 0
y_13_1_0 0
y_13_1_1 1
y_13_1_2 0
y_13_2_0 0
y_13_2_1 0
y_13_2_2 0
y_13_3_0 0
y_13_3_1 0
y_13_3_2 0
y_13_4_0 0
y_13_4_1 0
y_13_4_2 0
y_14_0_0 0
y_14_0_1 1
y_14_0_2 0
y_14_1_0 0
y_14_1_1 0
y_14_1_2 0
y_14_2_0 0
y_14_2_1 0
y_14_2_2 0
y_14_3_0 0
y_14_3_1 0
y_14_3_2 0
y_14_4_0 0
y_14_4_1 0
y_14_4_2 0
y_15_0_0 1
y_15_0_1 0
y_15_0_2 0
y_15_1_0 0
y_15_1_1 0
y_15_1_2 0
y_15_2_0 0
y_15_2_1 0
y_15_2_2 0
y_15_3_0 0
y_15_3_1 0
y_15_3_2 0
y_15_4_0 0
y_15_4_1 0
y_15_4_2 0
x_0_1_0_0 0
x_0_1_0_1 1
x_0_1_0_2 0
x_0_1_1_0 0
x_0_1_1_1 0
x_0_1_1_2 0
x_0_1_2_0 0
x_0_1_2_1 0
x_0_1_2_2 0
x_0_1_3_0 0
x_0_1_3_1 0
x_0_1_3_2 0
x_0_1_4_0 0
x_0_1_4_1 0
x_0_1_4_2 0
x_0_2_0_0 0
x_0_2_0_1 0
x_0_2_0_2 0
x_0_2_1_0 1.0000000000001881e+00
x_0_2_1_1 0
x_0_2_1_2 0
x_0_2_2_0 0
x_0_2_2_1 0
x_0_2_2_2 0
x_0_2_3_0 0
x_0_2_3_1 0
x_0_2_3_2 0
x_0_2_4_0 0
x_0_2_4_1 0
x_0_2_4_2 0
x_0_3_0_0 0
x_0_3_0_1 0
x_0_3_0_2 0
x_0_3_1_0 5.2284565565940966e-14
x_0_3_1_1 0
x_0_3_1_2 0
x_0_3_2_0 0
x_0_3_2_1 0
x_0_3_2_2 0
x_0_3_3_0 0
x_0_3_3_1 0
x_0_3_3_2 0
x_0_3_4_0 0
x_0_3_4_1 0
x_0_3_4_2 0
x_0_4_0_0 0
x_0_4_0_1 1.0000000000000033e+00
x_0_4_0_2 0
x_0_4_1_0 0
x_0_4_1_1 0
x_0_4_1_2 0
x_0_4_2_0 0
x_0_4_2_1 0
x_0_4_2_2 0
x_0_4_3_0 0
x_0_4_3_1 0
x_0_4_3_2 0
x_0_4_4_0 0
x_0_4_4_1 0
x_0_4_4_2 0
x_0_5_0_0 0
x_0_5_0_1 0
x_0_5_0_2 0
x_0_5_1_0 1.0000000000003235e+00
x_0_5_1_1 0
x_0_5_1_2 2.1944251971106610e-15
x_0_5_2_0 0
x_0_5_2_1 -2.2482016248659420e-15
x_0_5_2_2 0
x_0_5_3_0 0
x_0_5_3_1 0
x_0_5_3_2 0
x_0_5_4_0 0
x_0_5_4_1 0
x_0_5_4_2 -2.1944251971106610e-15
x_0_6_0_0 9.9999999999981526e-01
x_0_6_0_1 0
x_0_6_0_2 0
x_0_6_1_0 0
x_0_6_1_1 9.2443197194369553e-14
x_0_6_1_2 0
x_0_6_2_0 0
x_0_6_2_1 0
x_0_6_2_2 0
x_0_6_3_0 0
x_0_6_3_1 0
x_0_6_3_2 0
x_0_6_4_0 0
x_0_6_4_1 0
x_0_6_4_2 0
x_0_7_0_0 5.5693383932409191e-13
x_0_7_0_1 -3.4625080580497070e-15
x_0_7_0_2 0
x_0_7_1_0 -5.6311899587768721e-13
x_0_7_1_1 0
x_0_7_1_2 0
x_0_7_2_0 0
x_0_7_2_1 2.0000000000000027e+00
x_0_7_2_2 7.2707465048615916e-14
x_0_7_3_0 0
x_0_7_3_1 0
x_0_7_3_2 0
x_0_7_4_0 0
x_0_7_4_1 0
x_0_7_4_2 0
x_0_8_0_0 0
x_0_8_0_1 0
x_0_8_0_2 0
x_0_8_1_0 0
x_0_8_1_1 0
x_0_8_1_2 0
x_0_8_2_0 0
x_0_8_2_1 0
x_0_8_2_2 0
x_0_8_3_0 0
x_0_8_3_1 1
x_0_8_3_2 0
x_0_8_4_0 0
x_0_8_4_1 0
x_0_8_4_2 0
x_0_9_0_0 0
x_0_9_0_1 0
x_0_9_0_2 0
x_0_9_1_0 0
x_0_9_1_1 0
x_0_9_1_2 0
x_0_9_2_0 0
x_0_9_2_1 0
x_0_9_2_2 0
x_0_9_3_0 0
x_0_9_3_1 1
x_0_9_3_2 0
x_0_9_4_0 0
x_0_9_4_1 0
x_0_9_4_2 0
x_0_10_0_0 0
x_0_10_0_1 0
x_0_10_0_2 0
x_0_10_1_0 0
x_0_10_1_1 0
x_0_10_1_2 0
x_0_10_2_0 0
x_0_10_2_1 0
x_0_10_2_2 0
x_0_10_3_0 0
x_0_10_3_1 0
x_0_10_3_2 0
x_0_10_4_0 0
x_0_10_4_1 0
x_0_10_4_2 0
x_0_11_0_0 9.9999999999962774e-01
x_0_11_0_1 0
x_0_11_0_2 0
x_0_11_1_0 -4.5102810375396984e-17
x_0_11_1_1 0
x_0_11_1_2 0
x_0_11_2_0 0
x_0_11_2_1 0
x_0_11_2_2 0
x_0_11_3_0 0
x_0_11_3_1 0
x_0_11_3_2 0
x_0_11_4_0 0
x_0_11_4_1 0
x_0_11_4_2 0
x_0_12_0_0 0
x_0_12_0_1 0
x_0_12_0_2 0
x_0_12_1_0 0
x_0_12_1_1 9.9999999999990752e-01
x_0_12_1_2 0
x_0_12_2_0 0
x_0_12_2_1 0
x_0_12_2_2 0
x_0_12_3_0 0
x_0_12_3_1 0
x_0_12_3_2 0
x_0_12_4_0 0
x_0_12_4_1 0
x_0_12_4_2 0
x_0_13_0_0 0
x_0_13_0_1 0
x_0_13_0_2 0
x_0_13_1_0 0
x_0_13_1_1 1
x_0_13_1_2 0
x_0_13_2_0 0
x_0_13_2_1 0
x_0_13_2_2 0
x_0_13_3_0 0
x_0_13_3_1 0
x_0_13_3_2 0
x_0_13_4_0 0
x_0_13_4_1 0
x_0_13_4_2 0
x_0_14_0_0 0
x_0_14_0_1 0
x_0_14_0_2 0
x_0_14_1_0 0
x_0_14_1_1 0
x_0_14_1_2 0
x_0_14_2_0 0
x_0_14_2_1 0
x_0_14_2_2 0
x_0_14_3_0 0
x_0_14_3_1 0
x_0_14_3_2 0
x_0_14_4_0 0
x_0_14_4_1 0
x_0_14_4_2 0
x_0_15_0_0 0
x_0_15_0_1 0
x_0_15_0_2 0
x_0_15_1_0 0
x_0_15_1_1 0
x_0_15_1_2 0
x_0_15_2_0 0
x_0_15_2_1 0
x_0_15_2_2 0
x_0_15_3_0 0
x_0_15_3_1 0
x_0_15_3_2 0
x_0_15_4_0 0
x_0_15_4_1 0
x_0_15_4_2 0
x_1_2_0_0 9.3500294312542920e-14
x_1_2_0_1 0
x_1_2_0_2 0
x_1_2_1_0 0
x_1_2_1_1 0
x_1_2_1_2 0
x_1_2_2_0 0
x_1_2_2_1 0
x_1_2_2_2 0
x_1_2_3_0 0
x_1_2_3_1 0
x_1_2_3_2 0
x_1_2_4_0 0
x_1_2_4_1 0
x_1_2_4_2 0
x_1_3_0_0 0
x_1_3_0_1 0
x_1_3_0_2 0
x_1_3_1_0 0
x_1_3_1_1 0
x_1_3_1_2 0
x_1_3_2_0 0
x_1_3_2_1 0
x_1_3_2_2 0
x_1_3_3_0 0
x_1_3_3_1 0
x_1_3_3_2 0
x_1_3_4_0 0
x_1_3_4_1 0
x_1_3_4_2 0
x_1_4_0_0 1.8729592529687089e-13
x_1_4_0_1 -8.5695339713254270e-16
x_1_4_0_2 0
x_1_4_1_0 0
x_1_4_1_1 0
x_1_4_1_2 0
x_1_4_2_0 0
x_1_4_2_1 0
x_1_4_2_2 0
x_1_4_3_0 0
x_1_4_3_1 0
x_1_4_3_2 0
x_1_4_4_0 0
x_1_4_4_1 0
x_1_4_4_2 0
x_1_5_0_0 0
x_1_5_0_1 0
x_1_5_0_2 0
x_1_5_1_0 0
x_1_5_1_1 0
x_1_5_1_2 0
x_1_5_2_0 0
x_1_5_2_1 0
x_1_5_2_2 0
x_1_5_3_0 0
x_1_5_3_1 0
x_1_5_3_2 0
x_1_5_4_0 0
x_1_5_4_1 0
x_1_5_4_2 0
x_1_6_0_0 9.31132341369656e-14
x_1_6_0_1 0
x_1_6_0_2 0
x_1_6_1_0 0
x_1_6_1_1 0
x_1_6_1_2 0
x_1_6_2_0 0
x_1_6_2_1 0
x_1_6_2_2 0
x_1_6_3_0 0
x_1_6_3_1 0
x_1_6_3_2 0
x_1_6_4_0 0
x_1_6_4_1 0
x_1_6_4_2 0
x_1_7_0_0 0
x_1_7_0_1 0
x_1_7_0_2 0
x_1_7_1_0 0
x_1_7_1_1 0
x_1_7_1_2 0
x_1_7_2_0 0
x_1_7_2_1 0
x_1_7_2_2 0
x_1_7_3_0 0
x_1_7_3_1 0
x_1_7_3_2 0
x_1_7_4_0 0
x_1_7_4_1 0
x_1_7_4_2 0
x_1_8_0_0 0
x_1_8_0_1 0
x_1_8_0_2 0
x_1_8_1_0 0
x_1_8_1_1 0
x_1_8_1_2 0
x_1_8_2_0 0
x_1_8_2_1 0
x_1_8_2_2 0
x_1_8_3_0 0
x_1_8_3_1 0
x_1_8_3_2 0
x_1_8_4_0 0
x_1_8_4_1 0
x_1_8_4_2 0
x_1_9_0_0 0
x_1_9_0_1 0
x_1_9_0_2 0
x_1_9_1_0 0
x_1_9_1_1 0
x_1_9_1_2 0
x_1_9_2_0 0
x_1_9_2_1 0
x_1_9_2_2 0
x_1_9_3_0 0
x_1_9_3_1 0
x_1_9_3_2 0
x_1_9_4_0 0
x_1_9_4_1 0
x_1_9_4_2 0
x_1_10_0_0 0
x_1_10_0_1 0
x_1_10_0_2 0
x_1_10_1_0 0
x_1_10_1_1 0
x_1_10_1_2 0
x_1_10_2_0 0
x_1_10_2_1 0
x_1_10_2_2 0
x_1_10_3_0 0
x_1_10_3_1 0
x_1_10_3_2 0
x_1_10_4_0 0
x_1_10_4_1 0
x_1_10_4_2 0
x_1_11_0_0 0
x_1_11_0_1 0
x_1_11_0_2 0
x_1_11_1_0 0
x_1_11_1_1 0
x_1_11_1_2 0
x_1_11_2_0 0
x_1_11_2_1 0
x_1_11_2_2 0
x_1_11_3_0 0
x_1_11_3_1 0
x_1_11_3_2 0
x_1_11_4_0 0
x_1_11_4_1 0
x_1_11_4_2 0
x_1_12_0_0 9.3500294312542920e-14
x_1_12_0_1 -1.1275702593849246e-16
x_1_12_0_2 0
x_1_12_1_0 0
x_1_12_1_1 0
x_1_12_1_2 0
x_1_12_2_0 0
x_1_12_2_1 0
x_1_12_2_2 0
x_1_12_3_0 0
x_1_12_3_1 0
x_1_12_3_2 0
x_1_12_4_0 0
x_1_12_4_1 0
x_1_12_4_2 0
x_1_13_0_0 0
x_1_13_0_1 0
x_1_13_0_2 0
x_1_13_1_0 0
x_1_13_1_1 0
x_1_13_1_2 0
x_1_13_2_0 0
x_1_13_2_1 0
x_1_13_2_2 0
x_1_13_3_0 0
x_1_13_3_1 0
x_1_13_3_2 0
x_1_13_4_0 0
x_1_13_4_1 0
x_1_13_4_2 0
x_1_14_0_0 0
x_1_14_0_1 1.0000000000000009e+00
x_1_14_0_2 0
x_1_14_1_0 0
x_1_14_1_1 0
x_1_14_1_2 0
x_1_14_2_0 0
x_1_14_2_1 0
x_1_14_2_2 0
x_1_14_3_0 0
x_1_14_3_1 0
x_1_14_3_2 0
x_1_14_4_0 0
x_1_14_4_1 0
x_1_14_4_2 0
x_1_15_0_0 9.2817463784311549e-14
x_1_15_0_1 0
x_1_15_0_2 0
x_1_15_1_0 0
x_1_15_1_1 0
x_1_15_1_2 0
x_1_15_2_0 0
x_1_15_2_1 0
x_1_15_2_2 0
x_1_15_3_0 0
x_1_15_3_1 0
x_1_15_3_2 0
x_1_15_4_0 0
x_1_15_4_1 0
x_1_15_4_2 0
x_2_3_0_0 0
x_2_3_0_1 0
x_2_3_0_2 0
x_2_3_1_0 9.9999999999990608e-01
x_2_3_1_1 0
x_2_3_1_2 0
x_2_3_2_0 0
x_2_3_2_1 0
x_2_3_2_2 0
x_2_3_3_0 0
x_2_3_3_1 0
x_2_3_3_2 0
x_2_3_4_0 0
x_2_3_4_1 0
x_2_3_4_2 0
x_2_4_0_0 9.3500294312542920e-14
x_2_4_0_1 0
x_2_4_0_2 0
x_2_4_1_0 0
x_2_4_1_1 0
x_2_4_1_2 0
x_2_4_2_0 0
x_2_4_2_1 0
x_2_4_2_2 0
x_2_4_3_0 0
x_2_4_3_1 0
x_2_4_3_2 0
x_2_4_4_0 0
x_2_4_4_1 0
x_2_4_4_2 0
x_2_5_0_0 0
x_2_5_0_1 0
x_2_5_0_2 0
x_2_5_1_0 -3.7578967715390377e-13
x_2_5_1_1 0
x_2_5_1_2 0
x_2_5_2_0 0
x_2_5_2_1 0
x_2_5_2_2 0
x_2_5_3_0 0
x_2_5_3_1 0
x_2_5_3_2 0
x_2_5_4_0 0
x_2_5_4_1 0
x_2_5_4_2 0
x_2_6_0_0 0
x_2_6_0_1 0
x_2_6_0_2 0
x_2_6_1_0 0
x_2_6_1_1 0
x_2_6_1_2 0
x_2_6_2_0 0
x_2_6_2_1 0
x_2_6_2_2 0
x_2_6_3_0 0
x_2_6_3_1 0
x_2_6_3_2 0
x_2_6_4_0 0
x_2_6_4_1 0
x_2_6_4_2 0
x_2_7_0_0 0
x_2_7_0_1 0
x_2_7_0_2 0
x_2_7_1_0 0
x_2_7_1_1 0
x_2_7_1_2 0
x_2_7_2_0 0
x_2_7_2_1 0
x_2_7_2_2 0
x_2_7_3_0 0
x_2_7_3_1 0
x_2_7_3_2 0
x_2_7_4_0 0
x_2_7_4_1 0
x_2_7_4_2 0
x_2_8_0_0 0
x_2_8_0_1 0
x_2_8_0_2 0
x_2_8_1_0 9.38379148690549e-14
x_2_8_1_1 0
x_2_8_1_2 0
x_2_8_2_0 0
x_2_8_2_1 0
x_2_8_2_2 0
x_2_8_3_0 0
x_2_8_3_1 0
x_2_8_3_2 0
x_2_8_4_0 0
x_2_8_4_1 0
x_2_8_4_2 0
x_2_9_0_0 0
x_2_9_0_1 0
x_2_9_0_2 0
x_2_9_1_0 0
x_2_9_1_1 0
x_2_9_1_2 0
x_2_9_2_0 0
x_2_9_2_1 0
x_2_9_2_2 0
x_2_9_3_0 0
x_2_9_3_1 0
x_2_9_3_2 0
x_2_9_4_0 0
x_2_9_4_1 0
x_2_9_4_2 0
x_2_10_0_0 0
x_2_10_0_1 0
x_2_10_0_2 0
x_2_10_1_0 0
x_2_10_1_1 0
x_2_10_1_2 0
x_2_10_2_0 0
x_2_10_2_1 0
x_2_10_2_2 0
x_2_10_3_0 0
x_2_10_3_1 0
x_2_10_3_2 0
x_2_10_4_0 0
x_2_10_4_1 0
x_2_10_4_2 0
x_2_11_0_0 0
x_2_11_0_1 0
x_2_11_0_2 0
x_2_11_1_0 4.5102810375396984e-17
x_2_11_1_1 0
x_2_11_1_2 0
x_2_11_2_0 0
x_2_11_2_1 0
x_2_11_2_2 0
x_2_11_3_0 0
x_2_11_3_1 0
x_2_11_3_2 0
x_2_11_4_0 0
x_2_11_4_1 0
x_2_11_4_2 0
x_2_12_0_0 0
x_2_12_0_1 0
x_2_12_0_2 0
x_2_12_1_0 0
x_2_12_1_1 0
x_2_12_1_2 0
x_2_12_2_0 0
x_2_12_2_1 0
x_2_12_2_2 0
x_2_12_3_0 0
x_2_12_3_1 0
x_2_12_3_2 0
x_2_12_4_0 0
x_2_12_4_1 0
x_2_12_4_2 0
x_2_13_0_0 0
x_2_13_0_1 0
x_2_13_0_2 0
x_2_13_1_0 0
x_2_13_1_1 0
x_2_13_1_2 0
x_2_13_2_0 0
x_2_13_2_1 0
x_2_13_2_2 0
x_2_13_3_0 0
x_2_13_3_1 0
x_2_13_3_2 0
x_2_13_4_0 0
x_2_13_4_1 0
x_2_13_4_2 0
x_2_14_0_0 0
x_2_14_0_1 0
x_2_14_0_2 0
x_2_14_1_0 0
x_2_14_1_1 0
x_2_14_1_2 0
x_2_14_2_0 0
x_2_14_2_1 0
x_2_14_2_2 0
x_2_14_3_0 0
x_2_14_3_1 0
x_2_14_3_2 0
x_2_14_4_0 0
x_2_14_4_1 0
x_2_14_4_2 0
x_2_15_0_0 0
x_2_15_0_1 0
x_2_15_0_2 0
x_2_15_1_0 0
x_2_15_1_1 0
x_2_15_1_2 0
x_2_15_2_0 0
x_2_15_2_1 0
x_2_15_2_2 0
x_2_15_3_0 0
x_2_15_3_1 0
x_2_15_3_2 0
x_2_15_4_0 0
x_2_15_4_1 0
x_2_15_4_2 0
x_3_4_0_0 0
x_3_4_0_1 0
x_3_4_0_2 0
x_3_4_1_0 0
x_3_4_1_1 0
x_3_4_1_2 0
x_3_4_2_0 0
x_3_4_2_1 0
x_3_4_2_2 0
x_3_4_3_0 0
x_3_4_3_1 0
x_3_4_3_2 0
x_3_4_4_0 0
x_3_4_4_1 0
x_3_4_4_2 0
x_3_5_0_0 0
x_3_5_0_1 0
x_3_5_0_2 0
x_3_5_1_0 9.9999999999994793e-01
x_3_5_1_1 0
x_3_5_1_2 0
x_3_5_2_0 0
x_3_5_2_1 0
x_3_5_2_2 0
x_3_5_3_0 0
x_3_5_3_1 0
x_3_5_3_2 0
x_3_5_4_0 0
x_3_5_4_1 0
x_3_5_4_2 0
x_3_6_0_0 0
x_3_6_0_1 0
x_3_6_0_2 0
x_3_6_1_0 0
x_3_6_1_1 0
x_3_6_1_2 0
x_3_6_2_0 0
x_3_6_2_1 0
x_3_6_2_2 0
x_3_6_3_0 0
x_3_6_3_1 0
x_3_6_3_2 0
x_3_6_4_0 0
x_3_6_4_1 0
x_3_6_4_2 0
x_3_7_0_0 0
x_3_7_0_1 0
x_3_7_0_2 0
x_3_7_1_0 0
x_3_7_1_1 0
x_3_7_1_2 0
x_3_7_2_0 0
x_3_7_2_1 0
x_3_7_2_2 0
x_3_7_3_0 0
x_3_7_3_1 0
x_3_7_3_2 0
x_3_7_4_0 0
x_3_7_4_1 0
x_3_7_4_2 0
x_3_8_0_0 0
x_3_8_0_1 0
x_3_8_0_2 0
x_3_8_1_0 9.38379148690549e-14
x_3_8_1_1 0
x_3_8_1_2 0
x_3_8_2_0 0
x_3_8_2_1 0
x_3_8_2_2 0
x_3_8_3_0 0
x_3_8_3_1 0
x_3_8_3_2 0
x_3_8_4_0 0
x_3_8_4_1 0
x_3_8_4_2 0
x_3_9_0_0 0
x_3_9_0_1 0
x_3_9_0_2 0
x_3_9_1_0 0
x_3_9_1_1 0
x_3_9_1_2 0
x_3_9_2_0 0
x_3_9_2_1 0
x_3_9_2_2 0
x_3_9_3_0 0
x_3_9_3_1 0
x_3_9_3_2 0
x_3_9_4_0 0
x_3_9_4_1 0
x_3_9_4_2 0
x_3_10_0_0 0
x_3_10_0_1 0
x_3_10_0_2 0
x_3_10_1_0 0
x_3_10_1_1 0
x_3_10_1_2 0
x_3_10_2_0 0
x_3_10_2_1 0
x_3_10_2_2 0
x_3_10_3_0 0
x_3_10_3_1 0
x_3_10_3_2 0
x_3_10_4_0 0
x_3_10_4_1 0
x_3_10_4_2 0
x_3_11_0_0 0
x_3_11_0_1 0
x_3_11_0_2 0
x_3_11_1_0 0
x_3_11_1_1 0
x_3_11_1_2 0
x_3_11_2_0 0
x_3_11_2_1 0
x_3_11_2_2 0
x_3_11_3_0 0
x_3_11_3_1 0
x_3_11_3_2 0
x_3_11_4_0 0
x_3_11_4_1 0
x_3_11_4_2 0
x_3_12_0_0 0
x_3_12_0_1 0
x_3_12_0_2 0
x_3_12_1_0 0
x_3_12_1_1 0
x_3_12_1_2 0
x_3_12_2_0 0
x_3_12_2_1 0
x_3_12_2_2 0
x_3_12_3_0 0
x_3_12_3_1 0
x_3_12_3_2 0
x_3_12_4_0 0
x_3_12_4_1 0
x_3_12_4_2 0
x_3_13_0_0 0
x_3_13_0_1 0
x_3_13_0_2 0
x_3_13_1_0 0
x_3_13_1_1 0
x_3_13_1_2 0
x_3_13_2_0 0
x_3_13_2_1 0
x_3_13_2_2 0
x_3_13_3_0 0
x_3_13_3_1 0
x_3_13_3_2 0
x_3_13_4_0 0
x_3_13_4_1 0
x_3_13_4_2 0
x_3_14_0_0 0
x_3_14_0_1 0
x_3_14_0_2 0
x_3_14_1_0 0
x_3_14_1_1 0
x_3_14_1_2 0
x_3_14_2_0 0
x_3_14_2_1 0
x_3_14_2_2 0
x_3_14_3_0 0
x_3_14_3_1 0
x_3_14_3_2 0
x_3_14_4_0 0
x_3_14_4_1 0
x_3_14_4_2 0
x_3_15_0_0 0
x_3_15_0_1 0
x_3_15_0_2 0
x_3_15_1_0 0
x_3_15_1_1 0
x_3_15_1_2 0
x_3_15_2_0 0
x_3_15_2_1 0
x_3_15_2_2 0
x_3_15_3_0 0
x_3_15_3_1 0
x_3_15_3_2 0
x_3_15_4_0 0
x_3_15_4_1 0
x_3_15_4_2 0
x_4_5_0_0 0
x_4_5_0_1 0
x_4_5_0_2 0
x_4_5_1_0 0
x_4_5_1_1 0
x_4_5_1_2 0
x_4_5_2_0 0
x_4_5_2_1 0
x_4_5_2_2 0
x_4_5_3_0 0
x_4_5_3_1 0
x_4_5_3_2 0
x_4_5_4_0 0
x_4_5_4_1 0
x_4_5_4_2 0
x_4_6_0_0 0
x_4_6_0_1 0
x_4_6_0_2 0
x_4_6_1_0 0
x_4_6_1_1 0
x_4_6_1_2 0
x_4_6_2_0 0
x_4_6_2_1 0
x_4_6_2_2 0
x_4_6_3_0 0
x_4_6_3_1 0
x_4_6_3_2 0
x_4_6_4_0 0
x_4_6_4_1 0
x_4_6_4_2 0
x_4_7_0_0 0
x_4_7_0_1 0
x_4_7_0_2 0
x_4_7_1_0 0
x_4_7_1_1 0
x_4_7_1_2 0
x_4_7_2_0 0
x_4_7_2_1 0
x_4_7_2_2 0
x_4_7_3_0 0
x_4_7_3_1 0
x_4_7_3_2 0
x_4_7_4_0 0
x_4_7_4_1 0
x_4_7_4_2 0
x_4_8_0_0 0
x_4_8_0_1 0
x_4_8_0_2 0
x_4_8_1_0 0
x_4_8_1_1 0
x_4_8_1_2 0
x_4_8_2_0 0
x_4_8_2_1 0
x_4_8_2_2 0
x_4_8_3_0 0
x_4_8_3_1 0
x_4_8_3_2 0
x_4_8_4_0 0
x_4_8_4_1 0
x_4_8_4_2 0
x_4_9_0_0 0
x_4_9_0_1 0
x_4_9_0_2 0
x_4_9_1_0 0
x_4_9_1_1 0
x_4_9_1_2 0
x_4_9_2_0 0
x_4_9_2_1 0
x_4_9_2_2 0
x_4_9_3_0 0
x_4_9_3_1 0
x_4_9_3_2 0
x_4_9_4_0 0
x_4_9_4_1 0
x_4_9_4_2 0
x_4_10_0_0 9.9999999999990641e-01
x_4_10_0_1 0
x_4_10_0_2 0
x_4_10_1_0 0
x_4_10_1_1 0
x_4_10_1_2 0
x_4_10_2_0 0
x_4_10_2_1 0
x_4_10_2_2 0
x_4_10_3_0 0
x_4_10_3_1 0
x_4_10_3_2 0
x_4_10_4_0 0
x_4_10_4_1 0
x_4_10_4_2 0
x_4_11_0_0 9.9999999999981470e-01
x_4_11_0_1 0
x_4_11_0_2 0
x_4_11_1_0 0
x_4_11_1_1 0
x_4_11_1_2 0
x_4_11_2_0 0
x_4_11_2_1 0
x_4_11_2_2 0
x_4_11_3_0 0
x_4_11_3_1 0
x_4_11_3_2 0
x_4_11_4_0 0
x_4_11_4_1 0
x_4_11_4_2 0
x_4_12_0_0 0
x_4_12_0_1 0
x_4_12_0_2 0
x_4_12_1_0 0
x_4_12_1_1 0
x_4_12_1_2 0
x_4_12_2_0 0
x_4_12_2_1 0
x_4_12_2_2 0
x_4_12_3_0 0
x_4_12_3_1 0
x_4_12_3_2 0
x_4_12_4_0 0
x_4_12_4_1 0
x_4_12_4_2 0
x_4_13_0_0 0
x_4_13_0_1 0
x_4_13_0_2 0
x_4_13_1_0 0
x_4_13_1_1 0
x_4_13_1_2 0
x_4_13_2_0 0
x_4_13_2_1 0
x_4_13_2_2 0
x_4_13_3_0 0
x_4_13_3_1 0
x_4_13_3_2 0
x_4_13_4_0 0
x_4_13_4_1 0
x_4_13_4_2 0
x_4_14_0_0 0
x_4_14_0_1 9.9999999999999922e-01
x_4_14_0_2 0
x_4_14_1_0 0
x_4_14_1_1 0
x_4_14_1_2 0
x_4_14_2_0 0
x_4_14_2_1 0
x_4_14_2_2 0
x_4_14_3_0 0
x_4_14_3_1 0
x_4_14_3_2 0
x_4_14_4_0 0
x_4_14_4_1 0
x_4_14_4_2 0
x_4_15_0_0 0
x_4_15_0_1 0
x_4_15_0_2 0
x_4_15_1_0 0
x_4_15_1_1 0
x_4_15_1_2 0
x_4_15_2_0 0
x_4_15_2_1 0
x_4_15_2_2 0
x_4_15_3_0 0
x_4_15_3_1 0
x_4_15_3_2 0
x_4_15_4_0 0
x_4_15_4_1 0
x_4_15_4_2 0
x_5_6_0_0 0
x_5_6_0_1 0
x_5_6_0_2 0
x_5_6_1_0 0
x_5_6_1_1 0
x_5_6_1_2 0
x_5_6_2_0 0
x_5_6_2_1 0
x_5_6_2_2 0
x_5_6_3_0 0
x_5_6_3_1 0
x_5_6_3_2 0
x_5_6_4_0 0
x_5_6_4_1 0
x_5_6_4_2 0
x_5_7_0_0 0
x_5_7_0_1 0
x_5_7_0_2 0
x_5_7_1_0 0
x_5_7_1_1 0
x_5_7_1_2 0
x_5_7_2_0 0
x_5_7_2_1 0
x_5_7_2_2 0
x_5_7_3_0 0
x_5_7_3_1 0
x_5_7_3_2 0
x_5_7_4_0 0
x_5_7_4_1 0
x_5_7_4_2 0
x_5_8_0_0 0
x_5_8_0_1 0
x_5_8_0_2 0
x_5_8_1_0 0
x_5_8_1_1 0
x_5_8_1_2 0
x_5_8_2_0 0
x_5_8_2_1 0
x_5_8_2_2 0
x_5_8_3_0 0
x_5_8_3_1 0
x_5_8_3_2 0
x_5_8_4_0 0
x_5_8_4_1 0
x_5_8_4_2 0
x_5_9_0_0 0
x_5_9_0_1 0
x_5_9_0_2 0
x_5_9_1_0 0
x_5_9_1_1 0
x_5_9_1_2 0
x_5_9_2_0 0
x_5_9_2_1 0
x_5_9_2_2 0
x_5_9_3_0 0
x_5_9_3_1 0
x_5_9_3_2 0
x_5_9_4_0 0
x_5_9_4_1 0
x_5_9_4_2 0
x_5_10_0_0 0
x_5_10_0_1 0
x_5_10_0_2 0
x_5_10_1_0 0
x_5_10_1_1 0
x_5_10_1_2 0
x_5_10_2_0 0
x_5_10_2_1 0
x_5_10_2_2 0
x_5_10_3_0 0
x_5_10_3_1 0
x_5_10_3_2 0
x_5_10_4_0 0
x_5_10_4_1 0
x_5_10_4_2 0
x_5_11_0_0 0
x_5_11_0_1 0
x_5_11_0_2 0
x_5_11_1_0 0
x_5_11_1_1 0
x_5_11_1_2 0
x_5_11_2_0 0
x_5_11_2_1 0
x_5_11_2_2 0
x_5_11_3_0 0
x_5_11_3_1 0
x_5_11_3_2 0
x_5_11_4_0 0
x_5_11_4_1 0
x_5_11_4_2 0
x_5_12_0_0 0
x_5_12_0_1 0
x_5_12_0_2 0
x_5_12_1_0 0
x_5_12_1_1 0
x_5_12_1_2 0
x_5_12_2_0 0
x_5_12_2_1 0
x_5_12_2_2 0
x_5_12_3_0 0
x_5_12_3_1 0
x_5_12_3_2 0
x_5_12_4_0 0
x_5_12_4_1 0
x_5_12_4_2 0
x_5_13_0_0 0
x_5_13_0_1 0
x_5_13_0_2 0
x_5_13_1_0 0
x_5_13_1_1 0
x_5_13_1_2 0
x_5_13_2_0 0
x_5_13_2_1 0
x_5_13_2_2 0
x_5_13_3_0 0
x_5_13_3_1 0
x_5_13_3_2 0
x_5_13_4_0 0
x_5_13_4_1 0
x_5_13_4_2 0
x_5_14_0_0 0
x_5_14_0_1 0
x_5_14_0_2 0
x_5_14_1_0 0
x_5_14_1_1 0
x_5_14_1_2 0
x_5_14_2_0 0
x_5_14_2_1 0
x_5_14_2_2 0
x_5_14_3_0 0
x_5_14_3_1 0
x_5_14_3_2 0
x_5_14_4_0 0
x_5_14_4_1 0
x_5_14_4_2 0
x_5_15_0_0 0
x_5_15_0_1 0
x_5_15_0_2 0
x_5_15_1_0 0
x_5_15_1_1 0
x_5_15_1_2 0
x_5_15_2_0 0
x_5_15_2_1 0
x_5_15_2_2 0
x_5_15_3_0 0
x_5_15_3_1 0
x_5_15_3_2 0
x_5_15_4_0 0
x_5_15_4_1 0
x_5_15_4_2 0
x_6_7_0_0 0
x_6_7_0_1 0
x_6_7_0_2 0
x_6_7_1_0 0
x_6_7_1_1 0
x_6_7_1_2 0
x_6_7_2_0 0
x_6_7_2_1 0
x_6_7_2_2 0
x_6_7_3_0 0
x_6_7_3_1 0
x_6_7_3_2 0
x_6_7_4_0 0
x_6_7_4_1 0
x_6_7_4_2 0
x_6_8_0_0 0
x_6_8_0_1 0
x_6_8_0_2 0
x_6_8_1_0 0
x_6_8_1_1 0
x_6_8_1_2 0
x_6_8_2_0 0
x_6_8_2_1 0
x_6_8_2_2 0
x_6_8_3_0 0
x_6_8_3_1 0
x_6_8_3_2 0
x_6_8_4_0 0
x_6_8_4_1 0
x_6_8_4_2 0
x_6_9_0_0 0
x_6_9_0_1 0
x_6_9_0_2 0
x_6_9_1_0 0
x_6_9_1_1 0
x_6_9_1_2 0
x_6_9_2_0 0
x_6_9_2_1 0
x_6_9_2_2 0
x_6_9_3_0 0
x_6_9_3_1 0
x_6_9_3_2 0
x_6_9_4_0 0
x_6_9_4_1 0
x_6_9_4_2 0
x_6_10_0_0 0
x_6_10_0_1 0
x_6_10_0_2 0
x_6_10_1_0 0
x_6_10_1_1 0
x_6_10_1_2 0
x_6_10_2_0 0
x_6_10_2_1 0
x_6_10_2_2 0
x_6_10_3_0 0
x_6_10_3_1 0
x_6_10_3_2 0
x_6_10_4_0 0
x_6_10_4_1 0
x_6_10_4_2 0
x_6_11_0_0 0
x_6_11_0_1 0
x_6_11_0_2 0
x_6_11_1_0 0
x_6_11_1_1 0
x_6_11_1_2 0
x_6_11_2_0 0
x_6_11_2_1 0
x_6_11_2_2 0
x_6_11_3_0 0
x_6_11_3_1 0
x_6_11_3_2 0
x_6_11_4_0 0
x_6_11_4_1 0
x_6_11_4_2 0
x_6_12_0_0 0
x_6_12_0_1 0
x_6_12_0_2 0
x_6_12_1_0 0
x_6_12_1_1 9.2443197194369553e-14
x_6_12_1_2 0
x_6_12_2_0 0
x_6_12_2_1 0
x_6_12_2_2 0
x_6_12_3_0 0
x_6_12_3_1 0
x_6_12_3_2 0
x_6_12_4_0 0
x_6_12_4_1 0
x_6_12_4_2 0
x_6_13_0_0 0
x_6_13_0_1 0
x_6_13_0_2 0
x_6_13_1_0 0
x_6_13_1_1 0
x_6_13_1_2 0
x_6_13_2_0 0
x_6_13_2_1 0
x_6_13_2_2 0
x_6_13_3_0 0
x_6_13_3_1 0
x_6_13_3_2 0
x_6_13_4_0 0
x_6_13_4_1 0
x_6_13_4_2 0
x_6_14_0_0 0
x_6_14_0_1 0
x_6_14_0_2 0
x_6_14_1_0 0
x_6_14_1_1 0
x_6_14_1_2 0
x_6_14_2_0 0
x_6_14_2_1 0
x_6_14_2_2 0
x_6_14_3_0 0
x_6_14_3_1 0
x_6_14_3_2 0
x_6_14_4_0 0
x_6_14_4_1 0
x_6_14_4_2 0
x_6_15_0_0 9.9999999999990841e-01
x_6_15_0_1 0
x_6_15_0_2 0
x_6_15_1_0 0
x_6_15_1_1 0
x_6_15_1_2 0
x_6_15_2_0 0
x_6_15_2_1 0
x_6_15_2_2 0
x_6_15_3_0 0
x_6_15_3_1 0
x_6_15_3_2 0
x_6_15_4_0 0
x_6_15_4_1 0
x_6_15_4_2 0
x_7_8_0_0 0
x_7_8_0_1 0
x_7_8_0_2 0
x_7_8_1_0 0
x_7_8_1_1 0
x_7_8_1_2 0
x_7_8_2_0 0
x_7_8_2_1 0
x_7_8_2_2 0
x_7_8_3_0 0
x_7_8_3_1 0
x_7_8_3_2 0
x_7_8_4_0 0
x_7_8_4_1 0
x_7_8_4_2 0
x_7_9_0_0 0
x_7_9_0_1 0
x_7_9_0_2 0
x_7_9_1_0 0
x_7_9_1_1 0
x_7_9_1_2 0
x_7_9_2_0 0
x_7_9_2_1 0
x_7_9_2_2 0
x_7_9_3_0 0
x_7_9_3_1 0
x_7_9_3_2 0
x_7_9_4_0 0
x_7_9_4_1 0
x_7_9_4_2 0
x_7_10_0_0 0
x_7_10_0_1 0
x_7_10_0_2 0
x_7_10_1_0 0
x_7_10_1_1 0
x_7_10_1_2 0
x_7_10_2_0 0
x_7_10_2_1 0
x_7_10_2_2 0
x_7_10_3_0 0
x_7_10_3_1 0
x_7_10_3_2 0
x_7_10_4_0 0
x_7_10_4_1 0
x_7_10_4_2 0
x_7_11_0_0 0
x_7_11_0_1 0
x_7_11_0_2 0
x_7_11_1_0 0
x_7_11_1_1 0
x_7_11_1_2 0
x_7_11_2_0 0
x_7_11_2_1 0
x_7_11_2_2 0
x_7_11_3_0 0
x_7_11_3_1 0
x_7_11_3_2 0
x_7_11_4_0 0
x_7_11_4_1 0
x_7_11_4_2 0
x_7_12_0_0 0
x_7_12_0_1 0
x_7_12_0_2 0
x_7_12_1_0 0
x_7_12_1_1 0
x_7_12_1_2 0
x_7_12_2_0 0
x_7_12_2_1 0
x_7_12_2_2 0
x_7_12_3_0 0
x_7_12_3_1 0
x_7_12_3_2 0
x_7_12_4_0 0
x_7_12_4_1 0
x_7_12_4_2 0
x_7_13_0_0 0
x_7_13_0_1 0
x_7_13_0_2 0
x_7_13_1_0 0
x_7_13_1_1 0
x_7_13_1_2 0
x_7_13_2_0 0
x_7_13_2_1 0
x_7_13_2_2 0
x_7_13_3_0 0
x_7_13_3_1 0
x_7_13_3_2 0
x_7_13_4_0 0
x_7_13_4_1 0
x_7_13_4_2 0
x_7_14_0_0 0
x_7_14_0_1 0
x_7_14_0_2 0
x_7_14_1_0 0
x_7_14_1_1 0
x_7_14_1_2 0
x_7_14_2_0 0
x_7_14_2_1 0
x_7_14_2_2 0
x_7_14_3_0 0
x_7_14_3_1 0
x_7_14_3_2 0
x_7_14_4_0 0
x_7_14_4_1 0
x_7_14_4_2 0
x_7_15_0_0 0
x_7_15_0_1 0
x_7_15_0_2 0
x_7_15_1_0 0
x_7_15_1_1 0
x_7_15_1_2 0
x_7_15_2_0 0
x_7_15_2_1 0
x_7_15_2_2 0
x_7_15_3_0 0
x_7_15_3_1 0
x_7_15_3_2 0
x_7_15_4_0 0
x_7_15_4_1 0
x_7_15_4_2 0
x_8_9_0_0 0
x_8_9_0_1 0
x_8_9_0_2 0
x_8_9_1_0 0
x_8_9_1_1 0
x_8_9_1_2 0
x_8_9_2_0 0
x_8_9_2_1 0
x_8_9_2_2 0
x_8_9_3_0 0
x_8_9_3_1 1
x_8_9_3_2 0
x_8_9_4_0 0
x_8_9_4_1 0
x_8_9_4_2 0
x_8_10_0_0 0
x_8_10_0_1 0
x_8_10_0_2 0
x_8_10_1_0 0
x_8_10_1_1 0
x_8_10_1_2 0
x_8_10_2_0 0
x_8_10_2_1 0
x_8_10_2_2 0
x_8_10_3_0 0
x_8_10_3_1 0
x_8_10_3_2 0
x_8_10_4_0 0
x_8_10_4_1 0
x_8_10_4_2 0
x_8_11_0_0 0
x_8_11_0_1 0
x_8_11_0_2 0
x_8_11_1_0 0
x_8_11_1_1 0
x_8_11_1_2 0
x_8_11_2_0 0
x_8_11_2_1 0
x_8_11_2_2 0
x_8_11_3_0 0
x_8_11_3_1 0
x_8_11_3_2 0
x_8_11_4_0 0
x_8_11_4_1 0
x_8_11_4_2 0
x_8_12_0_0 0
x_8_12_0_1 0
x_8_12_0_2 0
x_8_12_1_0 0
x_8_12_1_1 0
x_8_12_1_2 0
x_8_12_2_0 0
x_8_12_2_1 0
x_8_12_2_2 0
x_8_12_3_0 0
x_8_12_3_1 0
x_8_12_3_2 0
x_8_12_4_0 0
x_8_12_4_1 0
x_8_12_4_2 0
x_8_13_0_0 0
x_8_13_0_1 0
x_8_13_0_2 0
x_8_13_1_0 0
x_8_13_1_1 0
x_8_13_1_2 0
x_8_13_2_0 0
x_8_13_2_1 0
x_8_13_2_2 0
x_8_13_3_0 0
x_8_13_3_1 0
x_8_13_3_2 0
x_8_13_4_0 0
x_8_13_4_1 0
x_8_13_4_2 0
x_8_14_0_0 0
x_8_14_0_1 0
x_8_14_0_2 0
x_8_14_1_0 0
x_8_14_1_1 0
x_8_14_1_2 0
x_8_14_2_0 0
x_8_14_2_1 0
x_8_14_2_2 0
x_8_14_3_0 0
x_8_14_3_1 0
x_8_14_3_2 0
x_8_14_4_0 0
x_8_14_4_1 0
x_8_14_4_2 0
x_8_15_0_0 0
x_8_15_0_1 0
x_8_15_0_2 0
x_8_15_1_0 0
x_8_15_1_1 0
x_8_15_1_2 0
x_8_15_2_0 0
x_8_15_2_1 0
x_8_15_2_2 0
x_8_15_3_0 0
x_8_15_3_1 0
x_8_15_3_2 0
x_8_15_4_0 0
x_8_15_4_1 0
x_8_15_4_2 0
x_9_10_0_0 0
x_9_10_0_1 0
x_9_10_0_2 0
x_9_10_1_0 0
x_9_10_1_1 0
x_9_10_1_2 0
x_9_10_2_0 0
x_9_10_2_1 0
x_9_10_2_2 0
x_9_10_3_0 0
x_9_10_3_1 0
x_9_10_3_2 0
x_9_10_4_0 0
x_9_10_4_1 0
x_9_10_4_2 0
x_9_11_0_0 0
x_9_11_0_1 0
x_9_11_0_2 0
x_9_11_1_0 0
x_9_11_1_1 0
x_9_11_1_2 0
x_9_11_2_0 0
x_9_11_2_1 0
x_9_11_2_2 0
x_9_11_3_0 0
x_9_11_3_1 0
x_9_11_3_2 0
x_9_11_4_0 0
x_9_11_4_1 0
x_9_11_4_2 0
x_9_12_0_0 0
x_9_12_0_1 0
x_9_12_0_2 0
x_9_12_1_0 0
x_9_12_1_1 0
x_9_12_1_2 0
x_9_12_2_0 0
x_9_12_2_1 0
x_9_12_2_2 0
x_9_12_3_0 0
x_9_12_3_1 0
x_9_12_3_2 0
x_9_12_4_0 0
x_9_12_4_1 0
x_9_12_4_2 0
x_9_13_0_0 0
x_9_13_0_1 0
x_9_13_0_2 0
x_9_13_1_0 0
x_9_13_1_1 0
x_9_13_1_2 0
x_9_13_2_0 0
x_9_13_2_1 0
x_9_13_2_2 0
x_9_13_3_0 0
x_9_13_3_1 0
x_9_13_3_2 0
x_9_13_4_0 0
x_9_13_4_1 0
x_9_13_4_2 0
x_9_14_0_0 0
x_9_14_0_1 0
x_9_14_0_2 0
x_9_14_1_0 0
x_9_14_1_1 0
x_9_14_1_2 0
x_9_14_2_0 0
x_9_14_2_1 0
x_9_14_2_2 0
x_9_14_3_0 0
x_9_14_3_1 0
x_9_14_3_2 0
x_9_14_4_0 0
x_9_14_4_1 0
x_9_14_4_2 0
x_9_15_0_0 0
x_9_15_0_1 0
x_9_15_0_2 0
x_9_15_1_0 0
x_9_15_1_1 0
x_9_15_1_2 0
x_9_15_2_0 0
x_9_15_2_1 0
x_9_15_2_2 0
x_9_15_3_0 0
x_9_15_3_1 0
x_9_15_3_2 0
x_9_15_4_0 0
x_9_15_4_1 0
x_9_15_4_2 0
x_10_11_0_0 0
x_10_11_0_1 0
x_10_11_0_2 0
x_10_11_1_0 0
x_10_11_1_1 0
x_10_11_1_2 0
x_10_11_2_0 0
x_10_11_2_1 0
x_10_11_2_2 0
x_10_11_3_0 0
x_10_11_3_1 0
x_10_11_3_2 0
x_10_11_4_0 0
x_10_11_4_1 0
x_10_11_4_2 0
x_10_12_0_0 9.3500294312542920e-14
x_10_12_0_1 -1.1275702593849246e-16
x_10_12_0_2 0
x_10_12_1_0 0
x_10_12_1_1 0
x_10_12_1_2 0
x_10_12_2_0 0
x_10_12_2_1 0
x_10_12_2_2 0
x_10_12_3_0 0
x_10_12_3_1 0
x_10_12_3_2 0
x_10_12_4_0 0
x_10_12_4_1 0
x_10_12_4_2 0
x_10_13_0_0 0
x_10_13_0_1 0
x_10_13_0_2 0
x_10_13_1_0 0
x_10_13_1_1 0
x_10_13_1_2 0
x_10_13_2_0 0
x_10_13_2_1 0
x_10_13_2_2 0
x_10_13_3_0 0
x_10_13_3_1 0
x_10_13_3_2 0
x_10_13_4_0 0
x_10_13_4_1 0
x_10_13_4_2 0
x_10_14_0_0 0
x_10_14_0_1 -1.1275702593849246e-16
x_10_14_0_2 0
x_10_14_1_0 0
x_10_14_1_1 0
x_10_14_1_2 0
x_10_14_2_0 0
x_10_14_2_1 0
x_10_14_2_2 0
x_10_14_3_0 0
x_10_14_3_1 0
x_10_14_3_2 0
x_10_14_4_0 0
x_10_14_4_1 0
x_10_14_4_2 0
x_10_15_0_0 1
x_10_15_0_1 0
x_10_15_0_2 0
x_10_15_1_0 0
x_10_15_1_1 0
x_10_15_1_2 0
x_10_15_2_0 0
x_10_15_2_1 0
x_10_15_2_2 0
x_10_15_3_0 0
x_10_15_3_1 0
x_10_15_3_2 0
x_10_15_4_0 0
x_10_15_4_1 0
x_10_15_4_2 0
x_11_12_0_0 0
x_11_12_0_1 0
x_11_12_0_2 0
x_11_12_1_0 0
x_11_12_1_1 0
x_11_12_1_2 0
x_11_12_2_0 0
x_11_12_2_1 0
x_11_12_2_2 0
x_11_12_3_0 0
x_11_12_3_1 0
x_11_12_3_2 0
x_11_12_4_0 0
x_11_12_4_1 0
x_11_12_4_2 0
x_11_13_0_0 0
x_11_13_0_1 0
x_11_13_0_2 0
x_11_13_1_0 0
x_11_13_1_1 0
x_11_13_1_2 0
x_11_13_2_0 0
x_11_13_2_1 0
x_11_13_2_2 0
x_11_13_3_0 0
x_11_13_3_1 0
x_11_13_3_2 0
x_11_13_4_0 0
x_11_13_4_1 0
x_11_13_4_2 0
x_11_14_0_0 0
x_11_14_0_1 0
x_11_14_0_2 0
x_11_14_1_0 0
x_11_14_1_1 0
x_11_14_1_2 0
x_11_14_2_0 0
x_11_14_2_1 0
x_11_14_2_2 0
x_11_14_3_0 0
x_11_14_3_1 0
x_11_14_3_2 0
x_11_14_4_0 0
x_11_14_4_1 0
x_11_14_4_2 0
x_11_15_0_0 0
x_11_15_0_1 0
x_11_15_0_2 0
x_11_15_1_0 0
x_11_15_1_1 0
x_11_15_1_2 0
x_11_15_2_0 0
x_11_15_2_1 0
x_11_15_2_2 0
x_11_15_3_0 0
x_11_15_3_1 0
x_11_15_3_2 0
x_11_15_4_0 0
x_11_15_4_1 0
x_11_15_4_2 0
x_12_13_0_0 0
x_12_13_0_1 0
x_12_13_0_2 0
x_12_13_1_0 0
x_12_13_1_1 1
x_12_13_1_2 0
x_12_13_2_0 0
x_12_13_2_1 0
x_12_13_2_2 0
x_12_13_3_0 0
x_12_13_3_1 0
x_12_13_3_2 0
x_12_13_4_0 0
x_12_13_4_1 0
x_12_13_4_2 0
x_12_14_0_0 0
x_12_14_0_1 0
x_12_14_0_2 0
x_12_14_1_0 0
x_12_14_1_1 0
x_12_14_1_2 0
x_12_14_2_0 0
x_12_14_2_1 0
x_12_14_2_2 0
x_12_14_3_0 0
x_12_14_3_1 0
x_12_14_3_2 0
x_12_14_4_0 0
x_12_14_4_1 0
x_12_14_4_2 0
x_12_15_0_0 0
x_12_15_0_1 0
x_12_15_0_2 0
x_12_15_1_0 0
x_12_15_1_1 0
x_12_15_1_2 0
x_12_15_2_0 0
x_12_15_2_1 0
x_12_15_2_2 0
x_12_15_3_0 0
x_12_15_3_1 0
x_12_15_3_2 0
x_12_15_4_0 0
x_12_15_4_1 0
x_12_15_4_2 0
x_13_14_0_0 0
x_13_14_0_1 0
x_13_14_0_2 0
x_13_14_1_0 0
x_13_14_1_1 0
x_13_14_1_2 0
x_13_14_2_0 0
x_13_14_2_1 0
x_13_14_2_2 0
x_13_14_3_0 0
x_13_14_3_1 0
x_13_14_3_2 0
x_13_14_4_0 0
x_13_14_4_1 0
x_13_14_4_2 0
x_13_15_0_0 0
x_13_15_0_1 0
x_13_15_0_2 0
x_13_15_1_0 0
x_13_15_1_1 0
x_13_15_1_2 0
x_13_15_2_0 0
x_13_15_2_1 0
x_13_15_2_2 0
x_13_15_3_0 0
x_13_15_3_1 0
x_13_15_3_2 0
x_13_15_4_0 0
x_13_15_4_1 0
x_13_15_4_2 0
x_14_15_0_0 0
x_14_15_0_1 0
x_14_15_0_2 0
x_14_15_1_0 0
x_14_15_1_1 0
x_14_15_1_2 0
x_14_15_2_0 0
x_14_15_2_1 0
x_14_15_2_2 0
x_14_15_3_0 0
x_14_15_3_1 0
x_14_15_3_2 0
x_14_15_4_0 0
x_14_15_4_1 0
x_14_15_4_2 0
